
  14    0


   0   7 2 4 9 10 11 12 13 
  10   3 8 7 3 
  10   1 5 
   7   1 6 
   2   1 14
   8   1 14
   2   1 14
   7   1 14
   2   1 14
   8   1 14
   2   1 14
   1   1 14
   9   1 14
   0   0 
